ALGO = Normal
AMIX = 0.1
AMIX_MAG = 0.2
BMIX = 0.01
BMIZ_MAG = 0.02
EDIFF = 1e-06
EDIFFG = -0.001
EMAX = 10.34
EMIN = -3.66
ENCUT = 500
IBRION = -1
ICHARG = 11
ISMEAR = -5
ISTART = 0
LCHARG = True
LREAL = Auto        ! evaluate projection operators in real space
LVTOT = False
LWAVE = False
NEDOS = 512
NELM = 300
PREC = Accurate
SIGMA = 0.1
System = Fex
