general:
System = graphene 

#------ machine ---

#  LPLANE   =   .TRUE.
#  LSCALU   =   .FALSE.
#  NSIM     =   4
#  NCORE    =   16

 LWAVE	= .FALSE.
 LCHARG	= .TRUE.
 LVTOT	= .FALSE.

EDIFF  =  1.0e-08  
EDIFFG = -0.001
ENCUT  =  500

NELM   =  300

#### RLX  ####
#ISIF   force  stress rlx-ions cellshape vol
#0	yes	no	yes	no	no
#1	yes	trace 	yes	no	no
#2	yes	yes	yes	no	no
#3	yes	yes	yes	yes	yes
#4	yes	yes	yes	yes	no
#5	yes	yes	no	yes	no
#6	yes	yes	no	yes	yes
#7	yes	yes	no	no	yes

 ISIF   = 3

#rlx-naive
#NSW    = 250
#IBRION = 1   # 1-RMM-DIIS, 2-CG, 3-DMD, 5&6-FT, 7&8-DFPT
#ISIF   = 3
#POTIM  = 0.5

#rlx from unreasonable
#NELMIN = 5           #  do a minimum of four electronic steps
#EDIFF  = 1E-2        #  low accuracy
#EDIFFG = -0.3        #  accuracy of ions not too high
#NSW    = 50          #  10 ionic steps in ions
#IBRION =  2          #  use CG algorithm
##advanced
#IBRION =  1 ; SMASS = 0.4  # damped MD  
#POTIM  = 0.4         # time step needs to chosen with care

#rlx from preconverged
#NELMIN = 8     #   do a minimum of ten electronic steps 
#EDIFF  = 1E-6  #   high accuracy for electronic groundstate
 EDIFFG = -0.005 #   small tolerance for ions 
 NSW    = 150    #   20 ionic steps should do
 MAXMIX = 80    #   keep dielectric function between ionic movements
 IBRION =  1    #   use RMM-DIIS algorithm for ions
#NFREE  =  10   #   estimated degrees of freedom of the system
 POTIM  = 0.1


 PREC = High     # High for relaxation
#PREC = Accurate # Accurate for electronic structure

 ISTART = 0

#ISMEAR= -5   # insulators (or =0 for large systems)
              # accurate metallic total energies
 ISMEAR= 1    # relaxation for metals
 SIGMA=0.10


 AMIX = 0.1
 BMIX = 0.01
 AMIX_MAG = 0.2
 BMIZ_MAG = 0.02
#--------------------------------------------------

  ALGO    =  NORMAL  #NORMAL FAST VERY_FAST


# LORBIT   =   11

#LWANNIER90 = .TRUE.
#LWRITE_MMN_AMN  = .TRUE.
#LWANNIER90_RUN  = .TRUE.

# LSYM = -1

#-------- spin polarized calc. & spin-orbit couplign-------
#ICHARG = 11
#ISPIN = 2

#LSORBIT = .TRUE.
#LNONCOLLINEAR = .TRUE.
#LORBMOM = .TRUE.
#SAXIS   = 0 0 1
#MAGMOM  =   2.598076 -1.500000  0.000000 -2.598076 -1.500000  0.000000  0.000000  3.000000  0.000000 -2.598076  1.500000  0.000000  2.598076  1.500000  0.000000  0.000000 -3.000000  0.000000 6*0
#MAGMOM  = 3 3 -3 -3 12*0
#GGA_COMPAT=.FALSE.
#ISYM= -1

# ------------------------
#  magnetic anisotropy 
# ------------------------
#LSYM = -1
#ICHARG = 11
#LSORBIT = .TRUE.
#LORBMOM = .TRUE.
#GGA_COMPAT=.FALSE.
#LMAXMIX = 4

#SAXIS   = 0 0 1
#NBANDS  = 192

#--------LDA+U-------------------
#LMAXMIX = 4


#LASPH = .TRUE. # take non-spherical part contribute to gradient inside PAW region into account
#NBANDS  = 624

#--------LDA+U-------------------
#LMAXMIX = 4
#LDAU = .TRUE.
#LDAUTYPE = 1 #Dudarev's approach
#LDAUL =  2  -1 -1
#LDAUU = 4.0 0.0 0.0
#LDAUJ = 1.0 0.0 0.0
#LDAUPRINT = 2

#--------  constrained (maybe not necessary) ----
#ISYM=0
#I_CONSTRAINED_M = 1
#RWIGS           = 2.69 2.69 4.04 1.55
#LAMBDA          = 10
#M_CONSTR        = 0 1 0  0 1 0  0 1 0  0 1 0  0 -1 0  0 -1 0  0 -1 0  0 -1 0 144*0

#--------DOS-------------------
#LORBIT   =   11
#NPAR=1
#EMIN=-20
#EMAX=15
#NEDOS=3500
#RWIGS           = 2.69 3.74 1.70
#---------------   for large cells ----------

      LREAL = AUTO        ! evaluate projection operators in real space

#------------------ save memory ---------
  # ISYM=2
  # NPAR=4

#GGA sol
#GGA = PS

